8 4 1 1 111111
15 2 1 3 4 2 2 3 7 4 5 2 2 3 4 3 3 1 4 2 5 4 3 3 1 3 3 7 4 1 2 1 6 3 4 3 1 1 2 1 4 3 2 1 7 4 3 2 1 6 4 5 3 1 3 3 3 4 6 2 1 6 3 3 2 3 4 4 4 2 2 7 3 1 2 1 5 4 3 2 1 3 3 4 
15 2 3 3 4 1 2 1 4 3 3 3 1 6 2 4 3 7 2 1 1 3 3 2 2 3 4 7 2 1 6 2 3 2 1 1 4 3 3 1 5 3 3 4 1 2 1 7 3 2 2 1 4 2 6 2 1 3 2 7 2 2 5 3 1 2 2 1 4 1 2 1 3 3 1 2 1 5 2 3 
15 2 3 6 4 7 2 3 7 4 2 2 2 3 4 1 2 2 5 3 2 2 1 5 4 5 2 1 1 2 5 2 2 4 3 2 2 3 4 4 1 3 1 1 2 2 3 2 2 3 5 4 3 2 2 3 4 7 2 2 5 4 6 2 3 7 4 4 3 2 4 3 1 4 6 2 1 5 4 1 
15 2 3 4 4 7 2 2 4 4 3 3 1 4 2 7 4 3 2 3 3 4 2 2 2 2 3 1 2 2 1 3 4 3 1 2 3 6 4 4 2 2 7 4 3 2 1 6 4 2 2 2 2 3 1 2 2 6 4 6 2 1 7 3 7 2 2 6 4 3 3 1 3 2 1 3 7 2 1 7 4 2 
15 2 1 2 3 4 2 3 2 4 7 2 2 6 4 7 2 2 7 4 6 2 2 1 4 2 2 1 6 4 3 2 1 4 2 2 2 1 7 2 6 2 1 1 3 5 3 2 6 3 1 4 1 2 1 7 4 3 2 1 6 3 6 2 2 5 4 1 2 2 6 3 5 2 2 4 3 7 
15 2 1 7 2 3 3 1 6 3 3 4 1 2 2 6 3 5 2 1 7 2 3 2 2 4 4 7 2 2 4 4 6 3 1 1 2 2 3 3 2 1 7 2 3 2 2 6 3 5 2 1 2 3 3 2 1 3 3 2 2 2 6 3 6 2 2 7 3 1 3 1 6 2 6 3 5 2 1 6 3 6 
15 2 2 1 4 4 3 1 4 3 3 4 3 2 2 6 3 5 2 3 2 4 2 2 1 1 2 1 2 2 5 4 1 2 1 3 4 4 2 1 3 4 1 2 1 4 4 3 2 3 5 4 2 2 3 5 4 6 2 2 3 4 7 3 2 3 3 1 4 6 2 3 7 4 3 2 2 7 3 4 
15 2 2 3 3 4 3 1 5 2 6 3 2 2 1 5 2 2 2 1 1 3 4 2 2 3 4 1 2 3 4 4 1 2 3 2 4 1 2 3 4 4 1 2 1 4 2 1 2 2 1 3 5 2 2 2 3 4 3 2 7 3 1 4 5 2 2 3 4 1 3 2 1 3 2 4 3 2 3 2 4 2 
0 2 2 6 
0 1 8 
1 0 3 4 5 7 
0 2 4 6 
2 2 3 2 9 14 
1 2 3 9 10 12 
2 3 0 1 7 
2 2 6 3 9 11 12 
1 1 2 10 12 
3 5 7 4 1 13 
2 5 8 1 11 
2 10 7 0 
3 5 7 8 2 13 14 
2 9 12 0 
2 12 4 0 
0 3 16 18 20 
1 15 2 21 23 
0 2 18 22 
2 15 17 1 25 
0 3 20 21 22 
2 15 19 2 24 25 
2 16 19 2 24 27 
2 17 19 1 24 
1 16 2 26 27 
3 21 22 20 2 26 28 
2 18 20 2 26 28 
3 25 23 24 1 29 
2 21 23 1 29 
2 25 24 0 
2 26 27 0 
0 2 34 36 
0 2 33 34 
0 3 33 34 36 
2 31 32 2 35 44 
3 30 32 31 2 39 44 
1 33 2 37 38 
2 32 30 2 37 39 
2 36 35 2 40 41 
1 35 2 40 41 
2 36 34 2 40 42 
3 37 38 39 1 43 
2 38 37 1 43 
1 39 1 43 
3 40 41 42 0 
2 34 33 0 
0 2 47 51 
0 2 48 51 
1 45 2 49 54 
1 46 2 49 54 
2 47 48 3 50 53 58 
1 49 1 52 
2 46 45 3 52 53 54 
2 50 51 2 55 56 
2 49 51 2 55 56 
3 48 47 51 2 55 56 
3 53 54 52 0 
3 53 52 54 0 
0 1 58 
2 49 57 1 59 
1 58 0 
0 3 62 64 67 
0 3 62 64 67 
2 60 61 3 63 65 72 
1 62 1 70 
2 61 60 2 65 68 
2 62 64 1 69 
0 1 67 
3 61 60 66 2 70 72 
1 64 1 71 
1 65 2 73 74 
2 67 63 1 71 
2 70 68 2 73 74 
2 67 62 2 73 74 
3 69 71 72 0 
3 71 69 72 0 
0 3 76 77 87 
1 75 2 80 81 
1 75 3 78 80 81 
1 77 2 79 83 
1 78 3 82 84 85 
2 76 77 3 82 83 84 
2 76 77 2 82 84 
3 81 80 79 2 86 89 
2 80 78 2 85 86 
3 79 81 80 1 86 
2 79 83 1 89 
3 83 84 82 0 
1 75 1 88 
1 87 1 89 
3 82 85 88 0 
0 1 96 
0 3 92 93 96 
1 91 1 99 
1 91 3 94 99 101 
1 93 3 95 102 103 
1 94 2 97 104 
2 90 91 2 101 102 
1 95 1 100 
0 1 99 
3 98 92 93 3 100 102 104 
2 97 99 0 
2 96 93 2 103 104 
3 99 94 96 0 
2 94 101 0 
3 95 99 101 0 
0 3 107 108 109 
0 1 109 
1 105 2 110 114 
1 105 2 110 113 
2 106 105 2 110 114 
3 108 107 109 1 111 
1 110 3 112 117 119 
1 111 1 118 
1 108 1 116 
2 109 107 1 116 
0 3 117 118 119 
2 113 114 3 117 118 119 
3 111 116 115 0 
3 116 112 115 0 
3 116 115 111 0 
